
Gurobi 8.1.0 (mac64) logging started Tue Sep 10 14:56:14 2019

Changed value of parameter LogFile to output/GurobiLog.txt
   Prev: gurobi.log  Default: 

Gurobi 8.1.0 (mac64) logging started Tue Sep 10 15:00:10 2019

Changed value of parameter LogFile to output/GurobiLog.txt
   Prev: gurobi.log  Default: 

Gurobi 8.1.0 (mac64) logging started Tue Sep 10 15:01:13 2019

Changed value of parameter LogFile to output/GurobiLog.txt
   Prev: gurobi.log  Default: 

Gurobi 8.1.0 (mac64) logging started Tue Sep 10 15:04:21 2019

Changed value of parameter LogFile to output/GurobiLog.txt
   Prev: gurobi.log  Default: 

Gurobi 8.1.0 (mac64) logging started Tue Sep 10 15:04:29 2019

Changed value of parameter LogFile to output/GurobiLog.txt
   Prev: gurobi.log  Default: 

Gurobi 8.1.0 (mac64) logging started Tue Sep 10 15:05:20 2019

Changed value of parameter LogFile to output/GurobiLog.txt
   Prev: gurobi.log  Default: 

Gurobi 8.1.0 (mac64) logging started Tue Sep 10 15:06:25 2019

Changed value of parameter LogFile to output/GurobiLog.txt
   Prev: gurobi.log  Default: 

Gurobi 8.1.0 (mac64) logging started Tue Sep 10 15:07:52 2019

Changed value of parameter LogFile to output/GurobiLog.txt
   Prev: gurobi.log  Default: 

Gurobi 8.1.0 (mac64) logging started Tue Sep 10 15:08:33 2019

Changed value of parameter LogFile to output/GurobiLog.txt
   Prev: gurobi.log  Default: 

Gurobi 8.1.0 (mac64) logging started Tue Sep 10 15:30:25 2019

Changed value of parameter LogFile to output/GurobiLog.txt
   Prev: gurobi.log  Default: 

Gurobi 8.1.0 (mac64) logging started Tue Sep 10 15:32:00 2019

Changed value of parameter LogFile to output/GurobiLog.txt
   Prev: gurobi.log  Default: 

Gurobi 8.1.0 (mac64) logging started Tue Sep 10 15:32:18 2019

Changed value of parameter LogFile to output/GurobiLog.txt
   Prev: gurobi.log  Default: 

Gurobi 8.1.0 (mac64) logging started Tue Sep 10 15:37:50 2019

Changed value of parameter LogFile to output/GurobiLog.txt
   Prev: gurobi.log  Default: 

Gurobi 8.1.0 (mac64) logging started Tue Sep 10 15:39:30 2019

Changed value of parameter LogFile to output/GurobiLog.txt
   Prev: gurobi.log  Default: 

Gurobi 8.1.0 (mac64) logging started Tue Sep 10 15:41:53 2019

Changed value of parameter LogFile to output/GurobiLog.txt
   Prev: gurobi.log  Default: 

Gurobi 8.1.0 (mac64) logging started Tue Sep 10 15:42:27 2019

Changed value of parameter LogFile to output/GurobiLog.txt
   Prev: gurobi.log  Default: 

Gurobi 8.1.0 (mac64) logging started Tue Sep 10 16:03:08 2019

Changed value of parameter LogFile to output/GurobiLog.txt
   Prev: gurobi.log  Default: 

Gurobi 8.1.0 (mac64) logging started Tue Sep 10 16:03:56 2019

Changed value of parameter LogFile to output/GurobiLog.txt
   Prev: gurobi.log  Default: 

Gurobi 8.1.0 (mac64) logging started Tue Sep 10 16:05:41 2019

Changed value of parameter LogFile to output/GurobiLog.txt
   Prev: gurobi.log  Default: 

Gurobi 8.1.0 (mac64) logging started Tue Sep 10 16:06:31 2019

Changed value of parameter LogFile to output/GurobiLog.txt
   Prev: gurobi.log  Default: 

Gurobi 8.1.0 (mac64) logging started Tue Sep 10 16:06:43 2019

Changed value of parameter LogFile to output/GurobiLog.txt
   Prev: gurobi.log  Default: 

Gurobi 8.1.0 (mac64) logging started Tue Sep 10 16:06:45 2019

Changed value of parameter LogFile to output/GurobiLog.txt
   Prev: gurobi.log  Default: 

Gurobi 8.1.0 (mac64) logging started Tue Sep 10 16:07:12 2019

Changed value of parameter LogFile to output/GurobiLog.txt
   Prev: gurobi.log  Default: 

Gurobi 8.1.0 (mac64) logging started Tue Sep 10 16:07:27 2019

Changed value of parameter LogFile to output/GurobiLog.txt
   Prev: gurobi.log  Default: 

Gurobi 8.1.0 (mac64) logging started Tue Sep 10 16:08:39 2019

Changed value of parameter LogFile to output/GurobiLog.txt
   Prev: gurobi.log  Default: 

Gurobi 8.1.0 (mac64) logging started Tue Sep 10 16:23:47 2019

Changed value of parameter LogFile to output/GurobiLog.txt
   Prev: gurobi.log  Default: 

Gurobi 8.1.0 (mac64) logging started Tue Sep 10 16:25:32 2019

Changed value of parameter LogFile to output/GurobiLog.txt
   Prev: gurobi.log  Default: 

Gurobi 8.1.0 (mac64) logging started Tue Sep 10 16:27:56 2019

Changed value of parameter LogFile to output/GurobiLog.txt
   Prev: gurobi.log  Default: 

Gurobi 8.1.0 (mac64) logging started Tue Sep 10 16:28:51 2019

Changed value of parameter LogFile to output/GurobiLog.txt
   Prev: gurobi.log  Default: 

Gurobi 8.1.0 (mac64) logging started Tue Sep 10 16:35:00 2019

Changed value of parameter LogFile to output/GurobiLog.txt
   Prev: gurobi.log  Default: 

Gurobi 8.1.0 (mac64) logging started Tue Sep 10 16:35:10 2019

Changed value of parameter LogFile to output/GurobiLog.txt
   Prev: gurobi.log  Default: 

Gurobi 8.1.0 (mac64) logging started Tue Sep 10 16:35:41 2019

Changed value of parameter LogFile to output/GurobiLog.txt
   Prev: gurobi.log  Default: 

Gurobi 8.1.0 (mac64) logging started Tue Sep 10 16:36:55 2019

Changed value of parameter LogFile to output/GurobiLog.txt
   Prev: gurobi.log  Default: 

Gurobi 8.1.0 (mac64) logging started Tue Sep 10 16:38:56 2019

Changed value of parameter LogFile to output/GurobiLog.txt
   Prev: gurobi.log  Default: 

Gurobi 8.1.0 (mac64) logging started Tue Sep 10 16:41:00 2019

Changed value of parameter LogFile to output/GurobiLog.txt
   Prev: gurobi.log  Default: 

Gurobi 8.1.0 (mac64) logging started Tue Sep 10 16:41:53 2019

Changed value of parameter LogFile to output/GurobiLog.txt
   Prev: gurobi.log  Default: 

Gurobi 8.1.0 (mac64) logging started Tue Sep 10 16:43:54 2019

Changed value of parameter LogFile to output/GurobiLog.txt
   Prev: gurobi.log  Default: 

Gurobi 8.1.0 (mac64) logging started Tue Sep 10 16:44:26 2019

Changed value of parameter LogFile to output/GurobiLog.txt
   Prev: gurobi.log  Default: 

Gurobi 8.1.0 (mac64) logging started Tue Sep 10 16:44:58 2019

Changed value of parameter LogFile to output/GurobiLog.txt
   Prev: gurobi.log  Default: 

Gurobi 8.1.0 (mac64) logging started Tue Sep 10 16:45:16 2019

Changed value of parameter LogFile to output/GurobiLog.txt
   Prev: gurobi.log  Default: 

Gurobi 8.1.0 (mac64) logging started Tue Sep 10 16:45:30 2019

Changed value of parameter LogFile to output/GurobiLog.txt
   Prev: gurobi.log  Default: 

Gurobi 8.1.0 (mac64) logging started Tue Sep 10 16:45:49 2019

Changed value of parameter LogFile to output/GurobiLog.txt
   Prev: gurobi.log  Default: 

Gurobi 8.1.0 (mac64) logging started Tue Sep 10 17:06:27 2019

Changed value of parameter LogFile to output/GurobiLog.txt
   Prev: gurobi.log  Default: 

Gurobi 8.1.0 (mac64) logging started Tue Sep 10 17:06:44 2019

Changed value of parameter LogFile to output/GurobiLog.txt
   Prev: gurobi.log  Default: 

Gurobi 8.1.0 (mac64) logging started Tue Sep 10 17:15:14 2019

Changed value of parameter LogFile to output/GurobiLog.txt
   Prev: gurobi.log  Default: 

Gurobi 8.1.0 (mac64) logging started Tue Sep 10 17:15:31 2019

Changed value of parameter LogFile to output/GurobiLog.txt
   Prev: gurobi.log  Default: 

Gurobi 8.1.0 (mac64) logging started Tue Sep 10 17:17:43 2019

Changed value of parameter LogFile to output/GurobiLog.txt
   Prev: gurobi.log  Default: 

Gurobi 8.1.0 (mac64) logging started Tue Sep 10 17:17:56 2019

Changed value of parameter LogFile to output/GurobiLog.txt
   Prev: gurobi.log  Default: 

Gurobi 8.1.0 (mac64) logging started Tue Sep 10 17:18:22 2019

Changed value of parameter LogFile to output/GurobiLog.txt
   Prev: gurobi.log  Default: 

Gurobi 8.1.0 (mac64) logging started Tue Sep 10 17:18:47 2019

Changed value of parameter LogFile to output/GurobiLog.txt
   Prev: gurobi.log  Default: 

Gurobi 8.1.0 (mac64) logging started Tue Sep 10 17:19:26 2019

Changed value of parameter LogFile to output/GurobiLog.txt
   Prev: gurobi.log  Default: 

Gurobi 8.1.0 (mac64) logging started Tue Sep 10 17:19:44 2019

Changed value of parameter LogFile to output/GurobiLog.txt
   Prev: gurobi.log  Default: 

Gurobi 8.1.0 (mac64) logging started Tue Sep 10 17:22:44 2019

Changed value of parameter LogFile to output/GurobiLog.txt
   Prev: gurobi.log  Default: 

Gurobi 8.1.0 (mac64) logging started Tue Sep 10 17:24:22 2019

Changed value of parameter LogFile to output/GurobiLog.txt
   Prev: gurobi.log  Default: 

Gurobi 8.1.0 (mac64) logging started Tue Sep 10 17:49:21 2019

Changed value of parameter LogFile to output/GurobiLog.txt
   Prev: gurobi.log  Default: 

Gurobi 8.1.0 (mac64) logging started Tue Sep 10 17:52:10 2019

Changed value of parameter LogFile to output/GurobiLog.txt
   Prev: gurobi.log  Default: 

Gurobi 8.1.0 (mac64) logging started Tue Sep 10 17:54:07 2019

Changed value of parameter LogFile to output/GurobiLog.txt
   Prev: gurobi.log  Default: 

Gurobi 8.1.0 (mac64) logging started Tue Sep 10 17:54:44 2019

Changed value of parameter LogFile to output/GurobiLog.txt
   Prev: gurobi.log  Default: 

Gurobi 8.1.0 (mac64) logging started Tue Sep 10 17:54:56 2019

Changed value of parameter LogFile to output/GurobiLog.txt
   Prev: gurobi.log  Default: 

Gurobi 8.1.0 (mac64) logging started Tue Sep 10 17:55:03 2019

Changed value of parameter LogFile to output/GurobiLog.txt
   Prev: gurobi.log  Default: 

Gurobi 8.1.0 (mac64) logging started Tue Sep 10 17:55:05 2019

Changed value of parameter LogFile to output/GurobiLog.txt
   Prev: gurobi.log  Default: 

Gurobi 8.1.0 (mac64) logging started Tue Sep 10 17:55:11 2019

Changed value of parameter LogFile to output/GurobiLog.txt
   Prev: gurobi.log  Default: 

Gurobi 8.1.0 (mac64) logging started Tue Sep 10 17:55:13 2019

Changed value of parameter LogFile to output/GurobiLog.txt
   Prev: gurobi.log  Default: 

Gurobi 8.1.0 (mac64) logging started Tue Sep 10 17:55:14 2019

Changed value of parameter LogFile to output/GurobiLog.txt
   Prev: gurobi.log  Default: 

Gurobi 8.1.0 (mac64) logging started Tue Sep 10 17:55:32 2019

Changed value of parameter LogFile to output/GurobiLog.txt
   Prev: gurobi.log  Default: 

Gurobi 8.1.0 (mac64) logging started Tue Sep 10 17:57:58 2019

Changed value of parameter LogFile to output/GurobiLog.txt
   Prev: gurobi.log  Default: 

Gurobi 8.1.0 (mac64) logging started Tue Sep 10 17:58:21 2019

Changed value of parameter LogFile to output/GurobiLog.txt
   Prev: gurobi.log  Default: 

Gurobi 8.1.0 (mac64) logging started Tue Sep 10 18:04:55 2019

Changed value of parameter LogFile to output/GurobiLog.txt
   Prev: gurobi.log  Default: 

Gurobi 8.1.0 (mac64) logging started Tue Sep 10 18:06:08 2019

Changed value of parameter LogFile to output/GurobiLog.txt
   Prev: gurobi.log  Default: 

Gurobi 8.1.0 (mac64) logging started Tue Sep 10 18:06:48 2019

Changed value of parameter LogFile to output/GurobiLog.txt
   Prev: gurobi.log  Default: 

Gurobi 8.1.0 (mac64) logging started Tue Sep 10 18:07:30 2019

Changed value of parameter LogFile to output/GurobiLog.txt
   Prev: gurobi.log  Default: 
